MARKOV
224
 2 2 2 2 2 2 2 2 2 2 2 2 2 2 2 2 2 2 2 2 2 2 2 2 2 2 2 2 2 2 2 2 2 2 2 2 2 2 2 2 2 2 2 2 2 2 2 2 2 2 2 2 2 2 2 2 2 2 2 2 2 2 2 2 2 2 2 2 2 2 2 2 2 2 2 2 2 2 2 2 2 2 2 2 2 2 2 2 2 2 2 2 2 2 2 2 2 2 2 2 2 2 2 2 2 2 2 2 2 2 2 2 2 2 2 2 2 2 2 2 2 2 2 2 2 2 2 2 2 2 2 2 2 2 2 2 2 2 2 2 2 2 2 2 2 2 2 2 2 2 2 2 2 2 2 2 2 2 2 2 2 2 2 2 2 2 2 2 2 2 2 2 2 2 2 2 2 2 2 2 2 2 2 2 2 2 2 2 2 2 2 2 2 2 2 2 2 2 2 2 2 2 2 2 2 2 2 2 2 2 2 2 2 2 2 2 2 2 2 2 2 2 2 2
837
1	0 
1	1 
1	2 
1	3 
1	4 
1	5 
1	6 
1	7 
1	8 
1	9 
1	10 
1	11 
1	12 
1	13 
1	14 
1	15 
1	16 
1	17 
1	18 
1	19 
1	20 
1	21 
1	22 
1	23 
1	24 
1	25 
1	26 
1	27 
1	28 
1	29 
1	30 
1	31 
1	32 
1	33 
1	34 
1	35 
1	36 
1	37 
1	38 
1	39 
1	40 
1	41 
1	42 
1	43 
1	44 
1	45 
1	46 
1	47 
1	48 
1	49 
1	50 
1	51 
1	52 
1	53 
1	54 
1	55 
1	56 
1	57 
1	58 
1	59 
1	60 
1	61 
1	62 
1	63 
1	64 
1	65 
1	66 
1	67 
1	68 
1	69 
1	70 
1	71 
1	72 
1	73 
1	74 
1	75 
1	76 
1	77 
1	78 
1	79 
1	80 
1	81 
1	82 
1	83 
1	84 
1	85 
1	86 
1	87 
1	88 
1	89 
1	90 
1	91 
1	92 
1	93 
1	94 
1	95 
1	96 
1	97 
1	98 
1	99 
1	100 
1	101 
1	102 
1	103 
1	104 
1	105 
1	106 
1	107 
1	108 
1	109 
1	110 
1	111 
1	112 
1	113 
1	114 
1	115 
1	116 
1	117 
1	118 
1	119 
1	120 
1	121 
1	122 
1	123 
1	124 
1	125 
1	126 
1	127 
1	128 
1	129 
1	130 
1	131 
1	132 
1	133 
1	134 
1	135 
1	136 
1	137 
1	138 
1	139 
1	140 
1	141 
1	142 
1	143 
1	144 
1	145 
1	146 
1	147 
1	148 
1	149 
1	150 
1	151 
1	152 
1	153 
1	154 
1	155 
1	156 
1	157 
1	158 
1	159 
1	160 
1	161 
1	162 
1	163 
1	164 
1	165 
1	166 
1	167 
1	168 
1	169 
1	170 
1	171 
1	172 
1	173 
1	174 
1	175 
1	176 
1	177 
1	178 
1	179 
1	180 
1	181 
1	182 
1	183 
1	184 
1	185 
1	186 
1	187 
1	188 
1	189 
1	190 
1	191 
1	192 
1	193 
1	194 
1	195 
1	196 
1	197 
1	198 
1	199 
1	200 
1	201 
1	202 
1	203 
1	204 
1	205 
1	206 
1	207 
1	208 
1	209 
1	210 
1	211 
1	212 
1	213 
1	214 
1	215 
1	216 
1	217 
1	218 
1	219 
1	220 
1	221 
1	222 
1	223 
2	1 3 
2	1 43 
2	1 44 
2	1 45 
2	1 108 
2	1 111 
2	1 125 
2	2 3 
2	2 4 
2	2 44 
2	2 104 
2	2 131 
2	3 4 
2	3 44 
2	3 125 
2	4 54 
2	4 103 
2	4 104 
2	4 125 
2	4 126 
2	5 6 
2	5 7 
2	5 9 
2	5 163 
2	5 196 
2	6 8 
2	6 9 
2	6 106 
2	6 107 
2	6 163 
2	6 165 
2	7 9 
2	7 43 
2	7 45 
2	7 189 
2	7 196 
2	7 197 
2	8 105 
2	8 106 
2	8 165 
2	9 43 
2	9 107 
2	10 11 
2	10 13 
2	10 55 
2	10 56 
2	10 101 
2	10 102 
2	11 12 
2	11 13 
2	11 14 
2	11 83 
2	11 102 
2	12 14 
2	12 72 
2	12 76 
2	12 83 
2	12 84 
2	12 151 
2	13 14 
2	13 55 
2	13 75 
2	13 77 
2	14 76 
2	14 77 
2	15 16 
2	15 18 
2	15 19 
2	15 63 
2	15 64 
2	15 217 
2	15 219 
2	16 63 
2	16 128 
2	16 213 
2	16 214 
2	16 219 
2	17 18 
2	17 19 
2	17 139 
2	17 140 
2	17 162 
2	17 167 
2	17 218 
2	18 19 
2	18 216 
2	18 217 
2	18 218 
2	19 64 
2	19 162 
2	20 21 
2	20 22 
2	20 87 
2	21 22 
2	21 23 
2	21 86 
2	21 87 
2	22 23 
2	23 86 
2	23 202 
2	23 207 
2	24 25 
2	24 26 
2	24 221 
2	24 223 
2	25 221 
2	25 222 
2	26 209 
2	26 210 
2	26 223 
2	27 29 
2	27 32 
2	27 33 
2	27 151 
2	27 152 
2	27 185 
2	28 29 
2	28 33 
2	28 35 
2	28 89 
2	28 90 
2	28 158 
2	29 33 
2	29 89 
2	29 152 
2	29 153 
2	30 31 
2	30 32 
2	30 33 
2	30 158 
2	30 160 
2	31 32 
2	31 160 
2	31 183 
2	32 33 
2	32 183 
2	32 185 
2	33 158 
2	34 35 
2	34 158 
2	34 159 
2	34 161 
2	35 90 
2	35 91 
2	35 158 
2	36 38 
2	36 162 
2	36 165 
2	36 166 
2	37 38 
2	37 129 
2	37 163 
2	37 164 
2	37 196 
2	38 162 
2	38 163 
2	38 164 
2	38 165 
2	39 42 
2	39 67 
2	39 93 
2	39 94 
2	39 148 
2	39 174 
2	39 176 
2	40 41 
2	40 42 
2	40 148 
2	40 149 
2	40 150 
2	40 153 
2	41 42 
2	41 89 
2	41 92 
2	41 153 
2	41 175 
2	41 177 
2	42 148 
2	42 176 
2	42 177 
2	43 45 
2	43 107 
2	43 109 
2	43 111 
2	44 45 
2	44 46 
2	44 131 
2	45 46 
2	45 189 
2	46 131 
2	46 133 
2	46 134 
2	46 187 
2	46 189 
2	47 50 
2	47 52 
2	47 53 
2	47 217 
2	47 219 
2	48 50 
2	48 51 
2	48 53 
2	48 179 
2	48 203 
2	49 51 
2	49 52 
2	49 53 
2	49 80 
2	50 53 
2	50 179 
2	50 180 
2	50 219 
2	51 53 
2	51 203 
2	51 204 
2	52 53 
2	52 78 
2	52 80 
2	52 216 
2	52 217 
2	54 56 
2	54 57 
2	54 103 
2	54 126 
2	54 209 
2	54 211 
2	55 56 
2	55 57 
2	55 75 
2	55 142 
2	55 143 
2	55 220 
2	56 57 
2	56 101 
2	56 103 
2	57 209 
2	57 220 
2	58 59 
2	58 60 
2	58 61 
2	58 88 
2	58 190 
2	58 194 
2	58 206 
2	59 61 
2	59 96 
2	59 119 
2	59 194 
2	60 61 
2	60 62 
2	60 178 
2	60 206 
2	61 62 
2	61 96 
2	61 97 
2	61 215 
2	62 178 
2	62 180 
2	62 214 
2	62 215 
2	63 64 
2	63 65 
2	63 128 
2	63 130 
2	64 65 
2	64 162 
2	64 164 
2	65 129 
2	65 130 
2	65 164 
2	66 69 
2	66 70 
2	66 71 
2	66 96 
2	66 97 
2	66 123 
2	66 201 
2	67 69 
2	67 70 
2	67 93 
2	67 174 
2	67 200 
2	67 201 
2	68 69 
2	68 71 
2	68 93 
2	68 116 
2	68 155 
2	68 157 
2	69 70 
2	69 71 
2	69 93 
2	70 121 
2	70 123 
2	70 201 
2	71 97 
2	71 154 
2	71 157 
2	72 76 
2	72 151 
2	72 184 
2	72 185 
2	73 74 
2	73 75 
2	73 77 
2	73 145 
2	74 76 
2	74 77 
2	74 184 
2	74 186 
2	75 77 
2	75 143 
2	75 145 
2	76 77 
2	76 184 
2	78 79 
2	78 80 
2	78 216 
2	78 218 
2	79 81 
2	79 140 
2	79 218 
2	81 82 
2	81 140 
2	82 139 
2	82 140 
2	82 169 
2	82 170 
2	83 84 
2	83 85 
2	83 102 
2	83 181 
2	84 85 
2	84 150 
2	84 151 
2	85 115 
2	85 149 
2	85 150 
2	85 181 
2	85 182 
2	86 87 
2	86 88 
2	86 202 
2	86 205 
2	87 88 
2	87 191 
2	88 190 
2	88 191 
2	88 205 
2	88 206 
2	89 90 
2	89 92 
2	89 153 
2	90 91 
2	90 92 
2	92 175 
2	93 94 
2	93 95 
2	93 116 
2	94 95 
2	94 114 
2	94 148 
2	95 114 
2	95 116 
2	95 117 
2	96 97 
2	96 119 
2	96 123 
2	97 98 
2	97 154 
2	97 215 
2	98 136 
2	98 154 
2	98 212 
2	98 215 
2	99 100 
2	99 104 
2	99 135 
2	99 181 
2	99 182 
2	100 101 
2	100 102 
2	100 103 
2	100 104 
2	100 181 
2	101 102 
2	101 103 
2	102 181 
2	103 104 
2	104 131 
2	104 135 
2	105 106 
2	105 138 
2	105 171 
2	106 107 
2	107 109 
2	107 112 
2	108 110 
2	108 111 
2	108 112 
2	108 125 
2	108 127 
2	109 111 
2	109 112 
2	110 112 
2	110 127 
2	111 112 
2	113 114 
2	113 115 
2	113 117 
2	113 118 
2	113 182 
2	114 115 
2	114 117 
2	114 148 
2	115 148 
2	115 149 
2	115 182 
2	116 117 
2	116 155 
2	117 118 
2	117 132 
2	117 155 
2	118 132 
2	118 135 
2	118 182 
2	119 120 
2	119 123 
2	119 193 
2	119 194 
2	120 122 
2	120 123 
2	120 193 
2	121 122 
2	121 123 
2	121 198 
2	121 201 
2	122 123 
2	123 201 
2	124 125 
2	124 126 
2	124 127 
2	124 208 
2	125 126 
2	125 127 
2	126 208 
2	126 211 
2	128 130 
2	128 212 
2	128 213 
2	128 214 
2	129 130 
2	129 163 
2	129 164 
2	129 195 
2	129 196 
2	130 188 
2	130 195 
2	130 212 
2	131 133 
2	131 135 
2	132 133 
2	132 134 
2	132 135 
2	132 155 
2	132 156 
2	133 134 
2	133 135 
2	134 137 
2	134 156 
2	134 187 
2	135 182 
2	136 137 
2	136 154 
2	136 157 
2	136 188 
2	136 212 
2	137 156 
2	137 157 
2	137 187 
2	137 188 
2	138 141 
2	138 165 
2	138 166 
2	138 171 
2	139 140 
2	139 141 
2	139 167 
2	139 169 
2	140 218 
2	141 166 
2	141 167 
2	141 168 
2	141 169 
2	141 171 
2	142 143 
2	142 144 
2	142 220 
2	143 144 
2	143 145 
2	143 147 
2	144 146 
2	144 147 
2	144 220 
2	144 221 
2	145 147 
2	146 147 
2	146 221 
2	146 222 
2	148 149 
2	149 150 
2	150 151 
2	150 152 
2	150 153 
2	151 152 
2	151 185 
2	152 153 
2	154 157 
2	155 156 
2	155 157 
2	156 157 
2	158 159 
2	158 160 
2	159 160 
2	159 161 
2	162 164 
2	162 166 
2	162 167 
2	163 165 
2	163 196 
2	165 166 
2	166 167 
2	168 169 
2	168 171 
2	168 172 
2	169 170 
2	169 172 
2	170 172 
2	173 174 
2	173 176 
2	173 177 
2	173 199 
2	174 176 
2	174 199 
2	174 200 
2	175 177 
2	176 177 
2	178 179 
2	178 180 
2	178 206 
2	179 180 
2	179 203 
2	179 205 
2	179 206 
2	180 213 
2	180 214 
2	180 219 
2	181 182 
2	183 184 
2	183 185 
2	183 186 
2	184 185 
2	184 186 
2	187 188 
2	187 189 
2	187 195 
2	187 197 
2	188 195 
2	188 212 
2	189 197 
2	190 191 
2	190 192 
2	190 194 
2	191 192 
2	192 193 
2	192 194 
2	193 194 
2	195 196 
2	195 197 
2	196 197 
2	198 199 
2	198 200 
2	198 201 
2	199 200 
2	200 201 
2	202 203 
2	202 205 
2	202 207 
2	203 204 
2	203 205 
2	203 207 
2	204 207 
2	205 206 
2	208 210 
2	208 211 
2	209 210 
2	209 211 
2	209 220 
2	209 223 
2	210 211 
2	212 214 
2	212 215 
2	213 214 
2	213 219 
2	214 215 
2	216 217 
2	216 218 
2	217 219 
2	220 221 
2	220 223 
2	221 222 
2	221 223 
0	

2
 0.252912 1
2
 0.279294 1
2
 0.0971052 1
2
 0.69874 1
2
 0.159588 1
2
 1 0.853182
2
 0.423428 1
2
 0.50799 1
2
 1 0.696285
2
 0.330554 1
2
 0.0615705 1
2
 0.0232877 1
2
 0.0159775 1
2
 0.0623761 1
2
 0.0432203 1
2
 1 0.793449
2
 0.1518 1
2
 1 0.729459
2
 0.329807 1
2
 1 0.625029
2
 1 0.165274
2
 1 0.0949574
2
 1 0.0403578
2
 1 0.1203
2
 1 0.198755
2
 1 0.1208
2
 1 0.244776
2
 0.178264 1
2
 1 0.270034
2
 0.498015 1
2
 1 0.89305
2
 1 0.368763
2
 1 0.852165
2
 0.783761 1
2
 1 0.64562
2
 1 0.525303
2
 1 0.783644
2
 0.236883 1
2
 0.499444 1
2
 0.169772 1
2
 0.886378 1
2
 1 0.106017
2
 0.372644 1
2
 0.412801 1
2
 0.0734369 1
2
 0.262826 1
2
 0.0122876 1
2
 1 0.889307
2
 1 0.323927
2
 1 0.0804089
2
 0.379625 1
2
 1 0.0770028
2
 1 0.401023
2
 1 0.61146
2
 0.845363 1
2
 0.27776 1
2
 0.724966 1
2
 0.866408 1
2
 1 0.923403
2
 0.597465 1
2
 1 0.692495
2
 0.0604259 1
2
 0.282089 1
2
 0.0233953 1
2
 0.0494329 1
2
 0.196775 1
2
 0.764228 1
2
 0.940767 1
2
 0.17465 1
2
 0.457354 1
2
 1 0.392117
2
 0.180414 1
2
 0.24505 1
2
 1 0.848688
2
 1 0.142873
2
 0.150862 1
2
 0.0399177 1
2
 0.344943 1
2
 1 0.266509
2
 1 0.288919
2
 1 0.137079
2
 1 0.369715
2
 1 0.156022
2
 0.0378741 1
2
 0.0425464 1
2
 0.0266891 1
2
 1 0.231503
2
 1 0.116008
2
 1 0.577771
2
 0.988542 1
2
 1 0.734766
2
 1 0.994531
2
 0.904318 1
2
 0.0600701 1
2
 0.250753 1
2
 0.16709 1
2
 0.183623 1
2
 0.0842178 1
2
 0.110368 1
2
 0.0206621 1
2
 0.066676 1
2
 0.14271 1
2
 0.153337 1
2
 0.347492 1
2
 0.0999149 1
2
 1 0.219834
2
 1 0.273999
2
 1 0.63574
2
 1 0.264762
2
 1 0.768584
2
 1 0.284513
2
 1 0.765817
2
 1 0.235478
2
 0.0372282 1
2
 0.096281 1
2
 0.0593481 1
2
 0.0117014 1
2
 0.0566732 1
2
 0.0634282 1
2
 0.3027 1
2
 1 0.253634
2
 0.587184 1
2
 1 0.496787
2
 0.168136 1
2
 1 0.247217
2
 1 0.410923
2
 1 0.351587
2
 1 0.16878
2
 0.0171571 1
2
 0.236621 1
2
 0.050858 1
2
 0.0687631 1
2
 0.0671899 1
2
 0.0481003 1
2
 0.0526106 1
2
 0.274325 1
2
 3.72496e-05 1
2
 0.100472 1
2
 0.90843 1
2
 0.160912 1
2
 0.194857 1
2
 0.52248 1
2
 1 0.391228
2
 1 0.428605
2
 1 0.142721
2
 1 0.978247
2
 1 0.083712
2
 1 0.0470806
2
 0.346075 1
2
 0.144227 1
2
 0.0299564 1
2
 0.022617 1
2
 0.252458 1
2
 0.289135 1
2
 0.069595 1
2
 0.056293 1
2
 0.00484185 1
2
 0.111286 1
2
 1 0.290984
2
 1 0.893256
2
 1 0.187868
2
 1 0.291588
2
 0.703598 1
2
 0.830713 1
2
 0.24156 1
2
 1 0.918544
2
 0.595204 1
2
 0.797 1
2
 1 0.309708
2
 1 0.733684
2
 1 0.422066
2
 1 0.32329
2
 1 0.0668909
2
 1 0.0903287
2
 0.546089 1
2
 1 0.224366
2
 1 0.409843
2
 1 0.0669525
2
 1 0.511185
2
 1 0.293335
2
 0.31011 1
2
 0.205683 1
2
 0.142742 1
2
 1 0.420572
2
 0.295547 1
2
 0.118302 1
2
 0.951659 1
2
 0.0430234 1
2
 0.0331686 1
2
 0.1825 1
2
 1 0.57415
2
 1 0.0488056
2
 1 0.131669
2
 1 0.310051
2
 0.911193 1
2
 0.19439 1
2
 0.0560632 1
2
 0.47448 1
2
 1 0.103357
2
 1 0.161057
2
 1 0.387558
2
 1 0.828371
2
 1 0.0886212
2
 1 0.203048
2
 1 0.159983
2
 1 0.251345
2
 1 0.44231
2
 1 0.0733216
2
 1 0.158518
2
 1 0.230233
2
 1 0.15423
2
 1 0.597679
2
 0.17179 1
2
 0.103876 1
2
 0.0453506 1
2
 0.0633759 1
2
 0.201919 1
2
 0.12116 1
2
 0.291087 1
2
 0.108992 1
2
 1 0.338657
2
 1 0.109498
2
 1 0.0459499
2
 1 0.142556
4
 0.952521 0.267201 0.267201 1
4
 0.953751 0.27188 0.27188 1
4
 0.956272 0.271023 0.271023 1
4
 0.956863 0.272867 0.272867 1
4
 0.948251 0.265731 0.265731 1
4
 0.95001 0.268493 0.268493 1
4
 0.947986 0.263792 0.263792 1
4
 0.956005 0.266811 0.266811 1
4
 0.954825 0.264096 0.264096 1
4
 0.959769 0.270627 0.270627 1
4
 0.961928 0.268897 0.268897 1
4
 0.963495 0.272093 0.272093 1
4
 0.95156 0.262774 0.262774 1
4
 0.956487 0.269273 0.269273 1
4
 0.948199 0.262089 0.262089 1
4
 0.947615 0.256013 0.256013 1
4
 0.952255 0.259996 0.259996 1
4
 0.957456 0.264829 0.264829 1
4
 0.947029 0.259422 0.259422 1
4
 0.946232 0.25719 0.25719 1
4
 0.958259 0.281766 0.281766 1
4
 0.964955 0.284398 0.284398 1
4
 0.96009 0.281522 0.281522 1
4
 0.964196 0.286347 0.286347 1
4
 0.970224 0.289684 0.289684 1
4
 0.950274 0.278243 0.278243 1
4
 0.954232 0.278073 0.278073 1
4
 0.946759 0.27483 0.27483 1
4
 0.946494 0.272823 0.272823 1
4
 0.958312 0.282839 0.282839 1
4
 0.95193 0.280406 0.280406 1
4
 0.9609 0.28067 0.28067 1
4
 0.960468 0.279163 0.279163 1
4
 0.963602 0.280176 0.280176 1
4
 0.969027 0.284831 0.284831 1
4
 0.971042 0.288808 0.288808 1
4
 0.971697 0.288013 0.288013 1
4
 0.945377 0.277477 0.277477 1
4
 0.944635 0.274759 0.274759 1
4
 0.949793 0.280334 0.280334 1
4
 0.955627 0.27634 0.27634 1
4
 0.948303 0.272587 0.272587 1
4
 0.965503 0.261123 0.261123 1
4
 0.96096 0.257053 0.257053 1
4
 0.956223 0.254266 0.254266 1
4
 0.955739 0.25575 0.25575 1
4
 0.959287 0.258927 0.258927 1
4
 0.963931 0.261521 0.261521 1
4
 0.976133 0.267011 0.267011 1
4
 0.966316 0.260333 0.260333 1
4
 0.971103 0.263186 0.263186 1
4
 0.974544 0.267864 0.267864 1
4
 0.969305 0.264858 0.264858 1
4
 0.976352 0.26573 0.26573 1
4
 0.983174 0.270006 0.270006 1
4
 0.977999 0.265449 0.265449 1
4
 0.979812 0.270453 0.270453 1
4
 0.984444 0.272909 0.272909 1
4
 0.988488 0.274898 0.274898 1
4
 0.966534 0.259084 0.259084 1
4
 0.957029 0.253497 0.253497 1
4
 0.959936 0.253521 0.253521 1
4
 0.963879 0.255795 0.255795 1
4
 0.97296 0.261647 0.261647 1
4
 0.968653 0.258599 0.258599 1
4
 0.99712 0.319519 0.319519 1
4
 0.990812 0.317126 0.317126 1
4
 0.988867 0.314619 0.314619 1
4
 0.993041 0.315099 0.315099 1
4
 0.98809 0.312578 0.312578 1
4
 0.996112 0.322183 0.322183 1
4
 0.998856 0.323078 0.323078 1
4
 0.996113 0.316328 0.316328 1
4
 1 0.318699 0.318699 0.999739
4
 1 0.322558 0.322558 0.996489
4
 1 0.320514 0.320514 0.995762
4
 1 0.323709 0.323709 0.998058
4
 0.982116 0.311998 0.311998 1
4
 0.980187 0.309532 0.309532 1
4
 0.971366 0.305486 0.305486 1
4
 0.976122 0.309721 0.309721 1
4
 0.973332 0.303474 0.303474 1
4
 0.971366 0.303455 0.303455 1
4
 0.980352 0.312559 0.312559 1
4
 0.985652 0.313482 0.313482 1
4
 0.989699 0.319473 0.319473 1
4
 0.992872 0.321018 0.321018 1
4
 0.985817 0.316547 0.316547 1
4
 0.982944 0.308987 0.308987 1
4
 0.976836 0.304918 0.304918 1
4
 1 0.359203 0.359203 0.943508
4
 1 0.361856 0.361856 0.942556
4
 1 0.359076 0.359076 0.94118
4
 1 0.358181 0.358181 0.946693
4
 1 0.35585 0.35585 0.950368
4
 1 0.352786 0.352786 0.951061
4
 1 0.355429 0.355429 0.945311
4
 1 0.358478 0.358478 0.949408
4
 1 0.353078 0.353078 0.953789
4
 1 0.35235 0.35235 0.956685
4
 1 0.354284 0.354284 0.957062
4
 0.921745 0.229158 0.229158 1
4
 0.925167 0.234728 0.234728 1
4
 0.926987 0.233074 0.233074 1
4
 0.927612 0.234769 0.234769 1
4
 0.925272 0.230292 0.230292 1
4
 0.922678 0.227263 0.227263 1
4
 0.931055 0.240475 0.240475 1
4
 0.927871 0.239671 0.239671 1
4
 0.929332 0.237605 0.237605 1
4
 1 0.282926 0.282926 0.995026
4
 0.998138 0.277309 0.277309 1
4
 1 0.280756 0.280756 0.996535
4
 0.997241 0.279882 0.279882 1
4
 1 0.282805 0.282805 0.997824
4
 0.993943 0.275506 0.275506 1
4
 1 0.287373 0.287373 0.984743
4
 1 0.285169 0.285169 0.986237
4
 1 0.288479 0.288479 0.976812
4
 1 0.291135 0.291135 0.979615
4
 1 0.291213 0.291213 0.975771
4
 1 0.285946 0.285946 0.982037
4
 1 0.28392 0.28392 0.990455
4
 1 0.28986 0.28986 0.983804
4
 1 0.285992 0.285992 0.991735
4
 1 0.288138 0.288138 0.988678
4
 1 0.274928 0.274928 0.998494
4
 1 0.276768 0.276768 0.998495
4
 1 0.279685 0.279685 0.993183
4
 1 0.280447 0.280447 0.988953
4
 1 0.27711 0.27711 0.992625
4
 0.997411 0.27335 0.27335 1
4
 1 0.274399 0.274399 0.996702
4
 0.992941 0.269141 0.269141 1
4
 1 0.278802 0.278802 0.997263
4
 0.99294 0.270942 0.270942 1
4
 0.993218 0.27339 0.27339 1
4
 1 0.282509 0.282509 0.987733
4
 1 0.286873 0.286873 0.97287
4
 1 0.284353 0.284353 0.978074
4
 1 0.282685 0.282685 0.977744
4
 1 0.283919 0.283919 0.973361
4
 1 0.291053 0.291053 0.972052
4
 1 0.290612 0.290612 0.970252
4
 1 0.285789 0.285789 0.978294
4
 0.961005 0.289008 0.289008 1
4
 0.963815 0.293132 0.293132 1
4
 0.954552 0.28496 0.28496 1
4
 0.957181 0.288624 0.288624 1
4
 0.967666 0.292058 0.292058 1
4
 0.975742 0.296606 0.296606 1
4
 0.967612 0.290466 0.290466 1
4
 0.973006 0.296635 0.296635 1
4
 0.973662 0.293852 0.293852 1
4
 0.967177 0.294744 0.294744 1
4
 0.964303 0.289012 0.289012 1
4
 0.969678 0.29515 0.29515 1
4
 0.957881 0.286526 0.286526 1
4
 1 0.301746 0.301746 0.979287
4
 1 0.306635 0.306635 0.978024
4
 1 0.304898 0.304898 0.981931
4
 1 0.302055 0.302055 0.98342
4
 1 0.299267 0.299267 0.985576
4
 1 0.305785 0.305785 0.976158
4
 1 0.304374 0.304374 0.975884
4
 1 0.295874 0.295874 0.981708
4
 1 0.29691 0.29691 0.982812
4
 1 0.294471 0.294471 0.989123
4
 1 0.291142 0.291142 0.994079
4
 1 0.290135 0.290135 0.993186
4
 1 0.29197 0.29197 0.987791
4
 1 0.299032 0.299032 0.977364
4
 1 0.295813 0.295813 0.977473
4
 1 0.298395 0.298395 0.971399
4
 1 0.294056 0.294056 0.982315
4
 1 0.30024 0.30024 0.9708
4
 1 0.302087 0.302087 0.969983
4
 1 0.297614 0.297614 0.984746
4
 1 0.302692 0.302692 0.975062
4
 1 0.303145 0.303145 0.971073
4
 0.958314 0.275853 0.275853 1
4
 0.947877 0.271123 0.271123 1
4
 0.950382 0.272076 0.272076 1
4
 0.951451 0.271432 0.271432 1
4
 0.960847 0.274983 0.274983 1
4
 0.965932 0.277845 0.277845 1
4
 0.963982 0.274604 0.274604 1
4
 0.966529 0.279736 0.279736 1
4
 0.966854 0.281454 0.281454 1
4
 0.969682 0.27935 0.27935 1
4
 0.974102 0.282906 0.282906 1
4
 0.976786 0.286066 0.286066 1
4
 0.977663 0.288683 0.288683 1
4
 0.971971 0.284384 0.284384 1
4
 1 0.332417 0.332417 0.988521
4
 1 0.333072 0.333072 0.993474
4
 1 0.335178 0.335178 0.988078
4
 1 0.329626 0.329626 0.996491
4
 1 0.329633 0.329633 0.993753
4
 1 0.336384 0.336384 0.981277
4
 1 0.342647 0.342647 0.976331
4
 1 0.339179 0.339179 0.980836
4
 1 0.338544 0.338544 0.976604
4
 1 0.342588 0.342588 0.972337
4
 1 0.343009 0.343009 0.980672
4
 1 0.337403 0.337403 0.990578
4
 1 0.339537 0.339537 0.985198
4
 1 0.339095 0.339095 0.990579
4
 1 0.335048 0.335048 0.985418
4
 1 0.334422 0.334422 0.981166
4
 1 0.329831 0.329831 0.986413
4
 1 0.329505 0.329505 0.991077
4
 1 0.341287 0.341287 0.980451
4
 1 0.344718 0.344718 0.971955
4
 1 0.347047 0.347047 0.972392
4
 1 0.335709 0.335709 0.990355
4
 0.999415 0.332248 0.332248 1
4
 1 0.335272 0.335272 0.995765
4
 0.998014 0.328957 0.328957 1
4
 1 0.330148 0.330148 0.998788
4
 0.948095 0.252836 0.252836 1
4
 0.94427 0.249871 0.249871 1
4
 0.94948 0.255911 0.255911 1
4
 0.943474 0.253149 0.253149 1
4
 0.940038 0.24767 0.24767 1
4
 0.941305 0.250448 0.250448 1
4
 0.95183 0.252213 0.252213 1
4
 0.94799 0.249254 0.249254 1
4
 0.955204 0.250773 0.250773 1
4
 0.949162 0.248066 0.248066 1
4
 0.950816 0.247919 0.247919 1
4
 0.945544 0.246434 0.246434 1
4
 0.94751 0.250709 0.250709 1
4
 0.95488 0.256835 0.256835 1
4
 0.952738 0.256769 0.256769 1
4
 0.939458 0.245586 0.245586 1
4
 0.941253 0.244965 0.244965 1
4
 1 0.334367 0.334367 0.963151
4
 1 0.334435 0.334435 0.967324
4
 1 0.332652 0.332652 0.967813
4
 1 0.341741 0.341741 0.958512
4
 1 0.339886 0.339886 0.95835
4
 1 0.337235 0.337235 0.958942
4
 1 0.337137 0.337137 0.965371
4
 1 0.330057 0.330057 0.96841
4
 1 0.328739 0.328739 0.966726
4
 1 0.330839 0.330839 0.961907
4
 1 0.334604 0.334604 0.959534
4
 1 0.330125 0.330125 0.972607
4
 1 0.328846 0.328846 0.97737
4
 1 0.331502 0.331502 0.975397
4
 1 0.334576 0.334576 0.970153
4
 1 0.327092 0.327092 0.977864
4
 1 0.327053 0.327053 0.971406
4
 1 0.32468 0.32468 0.975724
4
 1 0.324817 0.324817 0.978578
4
 1 0.328457 0.328457 0.980669
4
 1 0.326608 0.326608 0.984808
4
 1 0.323064 0.323064 0.987188
4
 1 0.323558 0.323558 0.98337
4
 0.987093 0.309457 0.309457 1
4
 0.98798 0.30815 0.30815 1
4
 0.996169 0.314372 0.314372 1
4
 0.992763 0.310202 0.310202 1
4
 0.983055 0.305686 0.305686 1
4
 0.976069 0.30294 0.30294 1
4
 0.978594 0.303357 0.303357 1
4
 0.982228 0.302047 0.302047 1
4
 0.988702 0.306421 0.306421 1
4
 0.979474 0.302076 0.302076 1
4
 1 0.316263 0.316263 0.975668
4
 1 0.318564 0.318564 0.971131
4
 1 0.316525 0.316525 0.978466
4
 1 0.322588 0.322588 0.971459
4
 1 0.320247 0.320247 0.975778
4
 1 0.322016 0.322016 0.967919
4
 1 0.318591 0.318591 0.968898
4
 1 0.311485 0.311485 0.977037
4
 1 0.313752 0.313752 0.972494
4
 1 0.308126 0.308126 0.979839
4
 1 0.309022 0.309022 0.974078
4
 1 0.311743 0.311743 0.971348
4
 1 0.313778 0.313778 0.970258
4
 1 0.310105 0.310105 0.983698
4
 1 0.310362 0.310362 0.98652
4
 1 0.306761 0.306761 0.986519
4
 1 0.304469 0.304469 0.992297
4
 1 0.304214 0.304214 0.995143
4
 1 0.306692 0.306692 0.99358
4
 1 0.315376 0.315376 0.973588
4
 1 0.313357 0.313357 0.980941
4
 1 0.309721 0.309721 0.98094
4
 1 0.320443 0.320443 0.963039
4
 1 0.321113 0.321113 0.965856
4
 1 0.317698 0.317698 0.966832
4
 1 0.317306 0.317306 0.981052
4
 1 0.31299 0.31299 0.987186
4
 1 0.309908 0.309908 0.990795
4
 0.979758 0.265857 0.265857 1
4
 0.990266 0.275321 0.275321 1
4
 0.983561 0.267743 0.267743 1
4
 0.986991 0.271016 0.271016 1
4
 0.964584 0.251409 0.251409 1
4
 0.958375 0.249294 0.249294 1
4
 0.962311 0.25153 0.25153 1
4
 0.954294 0.245094 0.245094 1
4
 0.972578 0.258201 0.258201 1
4
 0.968273 0.255193 0.255193 1
4
 0.976354 0.260032 0.260032 1
4
 0.975368 0.257865 0.257865 1
4
 0.962041 0.253046 0.253046 1
4
 0.953704 0.247943 0.247943 1
4
 0.954026 0.246571 0.246571 1
4
 0.970287 0.258325 0.258325 1
4
 0.978384 0.263224 0.263224 1
4
 0.99031 0.32651 0.32651 1
4
 0.999415 0.333914 0.333914 1
4
 0.993206 0.326237 0.326237 1
4
 0.98931 0.323249 0.323249 1
4
 0.981287 0.319802 0.319802 1
4
 0.980791 0.317406 0.317406 1
4
 0.985041 0.320314 0.320314 1
4
 0.972128 0.31265 0.31265 1
4
 0.976067 0.313734 0.313734 1
4
 0.966902 0.306064 0.306064 1
4
 0.971637 0.310308 0.310308 1
4
 0.962839 0.304074 0.304074 1
4
 0.963487 0.306285 0.306285 1
4
 0.982842 0.273781 0.273781 1
4
 0.982952 0.27541 0.27541 1
4
 0.972958 0.268272 0.268272 1
4
 0.976954 0.272036 0.272036 1
4
 0.987599 0.277911 0.277911 1
4
 0.994109 0.281466 0.281466 1
4
 0.991545 0.278281 0.278281 1
4
 0.991488 0.283772 0.283772 1
4
 0.993327 0.283868 0.283868 1
4
 0.994221 0.28314 0.28314 1
4
 0.981683 0.276139 0.276139 1
4
 0.984774 0.279201 0.279201 1
4
 1 0.35266 0.35266 0.948714
4
 1 0.348291 0.348291 0.954484
4
 1 0.349316 0.349316 0.957384
4
 1 0.346103 0.346103 0.959698
4
 1 0.350901 0.350901 0.948714
4
 1 0.352133 0.352133 0.944355
4
 1 0.344672 0.344672 0.954323
4
 1 0.347771 0.347771 0.950099
4
 1 0.344376 0.344376 0.959697
4
 1 0.341885 0.341885 0.961315
4
 1 0.293733 0.293733 0.974841
4
 1 0.296218 0.296218 0.972599
4
 1 0.29191 0.29191 0.983528
4
 1 0.293367 0.293367 0.969218
4
 1 0.296297 0.296297 0.968784
4
 1 0.300651 0.300651 0.96596
4
 1 0.303524 0.303524 0.985245
4
 1 0.302927 0.302927 0.988903
4
 1 0.304093 0.304093 0.989515
4
 1 0.300102 0.300102 0.990403
4
 1 0.297697 0.297697 0.992407
4
 1 0.297918 0.297918 0.988902
4
 1 0.297112 0.297112 0.996092
4
 1 0.300665 0.300665 0.994695
4
 1 0.297275 0.297275 0.999903
4
 1 0.323384 0.323384 0.974027
4
 1 0.327828 0.327828 0.964882
4
 1 0.325169 0.325169 0.966182
4
 1 0.318468 0.318468 0.983259
4
 1 0.316671 0.316671 0.984474
4
 1 0.321172 0.321172 0.981218
4
 1 0.312133 0.312133 0.994139
4
 1 0.314137 0.314137 0.989406
4
 1 0.31517 0.31517 0.991909
4
 1 0.318602 0.318602 0.986134
4
 0.96914 0.270735 0.270735 1
4
 0.968487 0.271936 0.271936 1
4
 0.973885 0.276787 0.276787 1
4
 0.97405 0.273501 0.273501 1
4
 0.977118 0.276534 0.276534 1
4
 0.962146 0.263622 0.263622 1
4
 0.966803 0.266263 0.266263 1
4
 0.959987 0.263554 0.263554 1
4
 0.96523 0.268454 0.268454 1
4
 0.970774 0.269998 0.269998 1
4
 0.963065 0.26263 0.26263 1
4
 0.956275 0.259958 0.259958 1
4
 0.971702 0.268983 0.268983 1
4
 0.95934 0.264723 0.264723 1
4
 0.96615 0.272849 0.272849 1
4
 0.969956 0.274454 0.274454 1
4
 0.94188 0.274073 0.274073 1
4
 0.945748 0.280712 0.280712 1
4
 0.944262 0.280334 0.280334 1
4
 0.940877 0.269408 0.269408 1
4
 0.943099 0.268382 0.268382 1
4
 0.939189 0.264546 0.264546 1
4
 0.939823 0.259888 0.259888 1
4
 0.945964 0.265293 0.265293 1
4
 0.940984 0.262123 0.262123 1
4
 0.943949 0.260648 0.260648 1
4
 0.939507 0.258302 0.258302 1
4
 0.946654 0.268687 0.268687 1
4
 0.941671 0.265476 0.265476 1
4
 0.936609 0.259452 0.259452 1
4
 0.935138 0.25567 0.25567 1
4
 0.942729 0.264847 0.264847 1
4
 0.996175 0.291163 0.291163 1
4
 0.99288 0.287568 0.287568 1
4
 0.992378 0.290213 0.290213 1
4
 0.986988 0.285392 0.285392 1
4
 0.986157 0.282937 0.282937 1
4
 0.998583 0.291644 0.291644 1
4
 0.998078 0.294326 0.294326 1
4
 1 0.29495 0.29495 0.994582
4
 1 0.292275 0.292275 0.997882
4
 0.997127 0.28814 0.28814 1
4
 0.988541 0.283404 0.283404 1
4
 0.999479 0.298264 0.298264 1
4
 1 0.301569 0.301569 0.998165
4
 0.988873 0.288492 0.288492 1
4
 0.989984 0.291187 0.291187 1
4
 0.996621 0.297161 0.297161 1
4
 0.984607 0.28635 0.28635 1
4
 0.979424 0.281516 0.281516 1
4
 0.982675 0.281259 0.281259 1
4
 1 0.331238 0.331238 0.956037
4
 1 0.327246 0.327246 0.961366
4
 1 0.333809 0.333809 0.954803
4
 1 0.333677 0.333677 0.957703
4
 1 0.33038 0.33038 0.95266
4
 1 0.328551 0.328551 0.957326
4
 1 0.33514 0.33514 0.950791
4
 1 0.325718 0.325718 0.955177
4
 1 0.323916 0.323916 0.959855
4
 1 0.321486 0.321486 0.956894
4
 1 0.320471 0.320471 0.960825
4
 1 0.326399 0.326399 0.95797
4
 1 0.32114 0.32114 0.963635
4
 0.938243 0.254161 0.254161 1
4
 0.937453 0.251975 0.251975 1
4
 0.933827 0.251874 0.251874 1
4
 0.931681 0.247531 0.247531 1
4
 0.94289 0.256519 0.256519 1
4
 0.939244 0.256416 0.256416 1
4
 0.936296 0.249827 0.249827 1
4
 0.939931 0.251599 0.251599 1
4
 0.996897 0.312608 0.312608 1
4
 1 0.315564 0.315564 0.997664
4
 1 0.320545 0.320545 0.996433
4
 1 0.318513 0.318513 0.995705
4
 0.986983 0.304058 0.304058 1
4
 0.972351 0.293513 0.293513 1
4
 0.977771 0.299746 0.299746 1
4
 0.983167 0.299909 0.299909 1
4
 0.97843 0.296934 0.296934 1
4
 0.993768 0.306613 0.306613 1
4
 0.989647 0.304253 0.304253 1
4
 0.998915 0.312107 0.312107 1
4
 0.972136 0.279605 0.279605 1
4
 0.971536 0.277716 0.277716 1
4
 0.981129 0.286079 0.286079 1
4
 0.983832 0.289275 0.289275 1
4
 0.980524 0.284146 0.284146 1
4
 0.992321 0.294955 0.294955 1
4
 0.988928 0.29299 0.29299 1
4
 0.979258 0.286327 0.286327 1
4
 0.975965 0.28125 0.28125 1
4
 0.98549 0.293338 0.293338 1
4
 0.987041 0.293244 0.293244 1
4
 0.982837 0.292174 0.292174 1
4
 0.9786 0.279094 0.279094 1
4
 0.994439 0.302725 0.302725 1
4
 1 0.310372 0.310372 0.995368
4
 1 0.307316 0.307316 0.999007
4
 0.996955 0.306558 0.306558 1
4
 1 0.311392 0.311392 0.997887
4
 0.990594 0.297105 0.297105 1
4
 0.995557 0.302007 0.302007 1
4
 0.986375 0.296021 0.296021 1
4
 0.99154 0.300964 0.300964 1
4
 0.95273 0.289036 0.289036 1
4
 0.950166 0.283602 0.283602 1
4
 0.952784 0.287248 0.287248 1
4
 0.947395 0.284312 0.284312 1
4
 0.97082 0.307126 0.307126 1
4
 0.961327 0.298147 0.298147 1
4
 0.966089 0.300912 0.300912 1
4
 0.962029 0.300956 0.300956 1
4
 0.979801 0.314237 0.314237 1
4
 0.956643 0.291628 0.291628 1
4
 0.961328 0.296165 0.296165 1
4
 0.953211 0.29219 0.29219 1
4
 0.957287 0.296208 0.296208 1
4
 0.951233 0.288647 0.288647 1
4
 0.947671 0.245267 0.245267 1
4
 0.942259 0.241839 0.241839 1
4
 0.942417 0.243797 0.243797 1
4
 0.943901 0.241696 0.241696 1
4
 0.949643 0.243765 0.243765 1
4
 0.945971 0.241645 0.241645 1
4
 0.936563 0.235821 0.235821 1
4
 0.940568 0.238268 0.238268 1
4
 0.938668 0.240247 0.240247 1
4
 0.934514 0.236264 0.236264 1
4
 0.94629 0.240309 0.240309 1
4
 0.938616 0.235772 0.235772 1
4
 0.932574 0.233789 0.233789 1
4
 0.92996 0.230713 0.230713 1
4
 1 0.291832 0.291832 0.996035
4
 0.999875 0.287499 0.287499 1
4
 0.998193 0.283517 0.283517 1
4
 1 0.286205 0.286205 0.996873
4
 1 0.288352 0.288352 0.993799
4
 1 0.283698 0.283698 0.99945
4
 0.992326 0.275926 0.275926 1
4
 1 0.288014 0.288014 0.991458
4
 1 0.309289 0.309289 0.99425
4
 0.995558 0.299001 0.299001 1
4
 1 0.30377 0.30377 0.999455
4
 0.997124 0.30191 0.30191 1
4
 1 0.281617 0.281617 0.983195
4
 1 0.279908 0.279908 0.987178
4
 1 0.278266 0.278266 0.986845
4
 1 0.281187 0.281187 0.978458
4
 0.972513 0.299362 0.299362 1
4
 0.963328 0.294352 0.294352 1
4
 0.968045 0.298931 0.298931 1
4
 0.957827 0.284964 0.284964 1
4
 0.970279 0.290787 0.290787 1
4
 0.954069 0.286145 0.286145 1
4
 0.961382 0.294333 0.294333 1
4
 0.953906 0.294943 0.294943 1
4
 0.947873 0.287415 0.287415 1
4
 0.950591 0.29382 0.29382 1
4
 0.958631 0.301173 0.301173 1
4
 0.954656 0.29786 0.29786 1
4
 0.955299 0.300027 0.300027 1
4
 1 0.309577 0.309577 0.966504
4
 1 0.308149 0.308149 0.966233
4
 1 0.30861 0.30861 0.96228
4
 1 0.312673 0.312673 0.960553
4
 1 0.306743 0.306743 0.971947
4
 1 0.311247 0.311247 0.966234
4
 1 0.310879 0.310879 0.969495
4
 1 0.30437 0.30437 0.964551
4
 1 0.305784 0.305784 0.967698
4
 1 0.333828 0.333828 0.977591
4
 1 0.329246 0.329246 0.982819
4
 1 0.33418 0.33418 0.973428
4
 1 0.331949 0.331949 0.981717
4
 1 0.340589 0.340589 0.972227
4
 1 0.339379 0.339379 0.970699
4
 1 0.336924 0.336924 0.972335
4
 1 0.325906 0.325906 0.990075
4
 1 0.32384 0.32384 0.989352
4
 1 0.327068 0.327068 0.991634
4
 0.978765 0.275781 0.275781 1
4
 0.985331 0.26593 0.26593 1
4
 0.988767 0.26918 0.26918 1
4
 0.984336 0.263714 0.263714 1
4
 0.985607 0.268332 0.268332 1
4
 0.98119 0.262882 0.262882 1
4
 0.988871 0.29977 0.29977 1
4
 0.977992 0.290456 0.290456 1
4
 0.98477 0.297462 0.297462 1
4
 0.980687 0.2937 0.2937 1
4
 0.989926 0.302429 0.302429 1
4
 0.999196 0.310236 0.310236 1
4
 0.974977 0.289327 0.289327 1
4
 1 0.345883 0.345883 0.949939
4
 1 0.343196 0.343196 0.950739
4
 1 0.340127 0.340127 0.954751
4
 1 0.346281 0.346281 0.946531
4
 1 0.340654 0.340654 0.948445
4
 1 0.340519 0.340519 0.951326
4
 1 0.337608 0.337608 0.952448
4
 0.981072 0.297124 0.297124 1
4
 0.981733 0.296306 0.296306 1
4
 0.977004 0.293367 0.293367 1
4
 1 0.317038 0.317038 0.958507
4
 1 0.316664 0.316664 0.961742
4
 1 0.318731 0.318731 0.960662
4
 1 0.313987 0.313987 0.963525
4
 1 0.315664 0.315664 0.965692
4
 1 0.346621 0.346621 0.964127
4
 1 0.345389 0.345389 0.962612
4
 1 0.350509 0.350509 0.960669
4
 1 0.346987 0.346987 0.968414
4
 1 0.343433 0.343433 0.966457
4
 1 0.348524 0.348524 0.964507
4
 1 0.350879 0.350879 0.96494
4
 1 0.339736 0.339736 0.966565
4
 0.929696 0.243602 0.243602 1
4
 0.934143 0.247162 0.247162 1
4
 0.932048 0.242609 0.242609 1
4
 0.936507 0.246154 0.246154 1
4
 0.937034 0.242807 0.242807 1
4
 0.933516 0.240517 0.240517 1
4
 0.933305 0.245331 0.245331 1
4
 1 0.317361 0.317361 0.993694
4
 1 0.317846 0.317846 0.989851
4
 1 0.32237 0.32237 0.992468
4
 1 0.325584 0.325584 0.994757
4
 1 0.320817 0.320817 0.987908
4
 0.994993 0.324568 0.324568 1
4
 0.987922 0.320047 0.320047 1
4
 1 0.326738 0.326738 0.999068
4
 0.934671 0.238177 0.238177 1
4
 0.9353 0.239909 0.239909 1
4
 0.927926 0.231147 0.231147 1
4
 0.931161 0.235931 0.235931 1
1
 1

